15
-1 607 547 684 415 92 547 790 385 278 248 425 121 322 636 
607 -1 211 198 398 699 544 363 451 360 652 248 689 731 132 
547 211 -1 143 500 633 335 252 272 268 512 122 596 578 123 
684 198 143 -1 574 772 437 165 409 406 655 259 738 718 68 
415 398 500 574 -1 490 724 733 559 372 605 419 535 693 506 
92 699 633 772 490 -1 601 872 450 365 263 512 94 318 726 
547 544 335 437 724 601 -1 416 174 359 365 328 523 381 451 
790 363 252 165 733 872 416 -1 455 513 712 371 824 759 233 
385 451 272 409 559 450 174 455 -1 188 256 205 384 310 395 
278 360 268 406 372 365 359 513 188 -1 298 147 336 381 363 
248 652 512 655 605 263 365 712 256 298 -1 413 172 88 629 
425 248 122 259 419 512 328 371 205 147 413 -1 479 486 220 
121 689 596 738 535 94 523 824 384 336 172 479 -1 224 699 
322 731 578 718 693 318 381 759 310 381 88 486 224 -1 698 
636 132 123 68 506 726 451 233 395 363 629 220 699 698 -1 
